NAME : berlin52.tsp
COMMENT : Optimal tour for berlin52.tsp
TYPE : TOUR
DIMENSION : 52
Total Length: 8080.156811545843
TOUR_SECTION
1
22
32
49
36
35
34
44
46
37
39
40
38
48
24
5
15
6
4
25
12
28
27
26
47
13
14
52
11
51
33
43
10
9
8
41
19
45
18
31
23
20
50
16
29
30
2
7
42
21
3
17
-1
EOF
